n = 15;
lu = [|-220, 210
      |-154, 106
      |-218, 219
      |82, 171
      |161, 225
      |-117, -73
      |-99, 94
      |-122, -107
      |161, 169
      |-125, 134
      |5, 192
      |-121, -20
      |-190, -36
      |-63, 29
      |31, 194|];
